17	4
23	23	23	20	
0	0	0	0	0	3	2	3	4	
6	1	7	6	0	2	9	11	
5	0	0	0	4	3	5	8	10	
7	0	6	9	5	3	6	10	17	
7	9	8	6	0	1	17	
100	0	5	7	0	3	7	11	13	
225	5	0	3	5	1	9	
225	6	5	0	8	1	12	
125	6	0	0	1	3	16	17	17	
100	5	0	9	0	1	15	
50	1	10	0	5	1	17	
250	0	2	7	10	2	17	17	
7	7	0	6	8	1	14	
7	5	10	0	8	3	17	17	17	
1	4	1	3	3	2	17	17	
3	5	5	1	10	2	17	17	
0	0	0	0	0	0	
